NAME: tsp30-4
TYPE: TSP
DIMENSION: 30
EDGE_WEIGHT_TYPE: EUC_2D
NODE_COORD_SECTION
0 50 27
1 60 62
2 41 2
3 20 72
4 69 24
5 20 37
6 53 33
7 53 11
8 6 39
9 3 17
10 50 21
11 61 29
12 26 73
13 3 14
14 40 51
15 2 34
16 32 2
17 50 58
18 87 86
19 80 22
20 48 83
21 9 55
22 36 82
23 93 68
24 83 77
25 23 13
26 57 60
27 92 3
28 89 40
29 37 27
EOF